
Gurobi 6.0.4 (win64) logging started 06/12/15 17:24:45

Read LP format model from file E:\Eigene Dateien\Downloads\Michi shit\VRPTWMS-master\VRPTWMS\instances\mip\fuel\N8-C_DV100-C_SV25_F5_7_No_1.lp
Reading time = 0.01 seconds
(null): 417 rows, 208 columns, 1715 nonzeros
Optimize a model with 417 rows, 208 columns and 1715 nonzeros
Model has 576 quadratic constraints
WARNING: Only barrier available for SOCP models
Coefficient statistics:
  Matrix range    [1e+00, 1e+02]
  Objective range [4e+00, 1e+03]
  Bounds range    [1e+00, 1e+02]
  RHS range       [1e+00, 1e+02]
Presolve removed 59 rows and 32 columns
Presolve time: 0.02s
Presolved: 1264 rows, 648 columns, 6068 nonzeros
Variable types: 434 continuous, 214 integer (172 binary)
Found heuristic solution: objective 8266.6000000
Optimize a model with 1264 rows, 648 columns and 6068 nonzeros
Coefficient statistics:
  Matrix range    [9e-01, 1e+02]
  Objective range [4e+00, 1e+03]
  Bounds range    [1e+00, 1e+02]
  RHS range       [4e-01, 1e+02]

Concurrent LP optimizer: dual simplex and barrier
Showing barrier log only...

Presolve removed 145 rows and 87 columns
Presolved: 1119 rows, 563 columns, 5432 nonzeros

Root barrier log...

Ordering time: 0.02s

Barrier performed 0 iterations in 0.05 seconds
Barrier solve interrupted - model solved by another algorithm


Solved with dual simplex
Solved in 67 iterations and 0.05 seconds
Optimal objective  1.142908161e+03

Root relaxation: objective 1.142908e+03, 67 iterations, 0.02 seconds

    Nodes    |    Current Node    |     Objective Bounds      |     Work
 Expl Unexpl |  Obj  Depth IntInf | Incumbent    BestBd   Gap | It/Node Time

     0     0 1142.90816    0   19 8266.60000 1142.90816  86.2%     -    0s
H    0     0                    5191.5500000 1142.90816  78.0%     -    0s
     0     0 1150.95204    0   39 5191.55000 1150.95204  77.8%     -    0s
     0     0 1164.30709    0   56 5191.55000 1164.30709  77.6%     -    0s
H    0     0                    5185.6200000 1164.30709  77.5%     -    0s
     0     0 1164.37223    0   64 5185.62000 1164.37223  77.5%     -    0s
H    0     0                    4167.8900000 1164.37223  72.1%     -    0s
     0     0 1164.37223    0   66 4167.89000 1164.37223  72.1%     -    0s
     0     0 1164.37223    0   65 4167.89000 1164.37223  72.1%     -    0s
     0     0 1164.37223    0   67 4167.89000 1164.37223  72.1%     -    0s
     0     0 1164.37223    0   68 4167.89000 1164.37223  72.1%     -    0s
H    0     0                    4166.3700000 1164.37223  72.1%     -    0s
     0     0 1164.37223    0   65 4166.37000 1164.37223  72.1%     -    0s
     0     0 1164.37223    0   65 4166.37000 1164.37223  72.1%     -    0s
H    0     0                    4165.5000000 1164.37223  72.0%     -    0s
     0     0 1164.37223    0   48 4165.50000 1164.37223  72.0%     -    0s
     0     0 1167.13779    0   57 4165.50000 1167.13779  72.0%     -    0s
     0     0 1177.87684    0   78 4165.50000 1177.87684  71.7%     -    0s
     0     0 1177.91629    0   86 4165.50000 1177.91629  71.7%     -    0s
     0     0 1178.39022    0   87 4165.50000 1178.39022  71.7%     -    0s
     0     0 1179.85344    0   77 4165.50000 1179.85344  71.7%     -    0s
     0     0 1180.63103    0   86 4165.50000 1180.63103  71.7%     -    0s
     0     0 1180.68084    0   90 4165.50000 1180.68084  71.7%     -    0s
     0     0 1180.68084    0   82 4165.50000 1180.68084  71.7%     -    0s
     0     0 1180.68084    0   83 4165.50000 1180.68084  71.7%     -    0s
     0     0 1180.68084    0   82 4165.50000 1180.68084  71.7%     -    0s
     0     0 1180.68084    0   85 4165.50000 1180.68084  71.7%     -    0s
     0     0 1180.68084    0   85 4165.50000 1180.68084  71.7%     -    0s
     0     2 1180.68084    0   85 4165.50000 1180.68084  71.7%     -    0s
H  100    84                    3197.6000000 1247.84059  61.0%  31.6    0s
H  153   100                    3192.9600000 2131.47756  33.2%  29.1    0s
H  268   152                    3188.8200000 2131.47756  33.2%  25.3    0s
H  432   217                    3160.6200000 2136.49780  32.4%  22.0    0s

Cutting planes:
  Gomory: 3
  Cover: 2
  Implied bound: 6
  Clique: 2
  MIR: 7
  GUB cover: 2
  Mod-K: 1

Explored 4814 nodes (182710 simplex iterations) in 3.15 seconds
Thread count was 4 (of 4 available processors)

Optimal solution found (tolerance 1.00e-04)
Best objective 3.160620000000e+03, best bound 3.160620000000e+03, gap 0.0%
k_c1	96.0
k_c2	12.0
k_c3	4.0
k_c4	100.0
k_c5	95.0
k_c6	17.0
k_c7	5.0
k_c8	21.0
k_dN	-0.0
o_1	-0.0
o_2	0.0
o_3	0.0
o_4	-0.0
o_5	0.0
o_6	0.0
o_7	0.0
o_8	-0.0
p_1	-0.0
p_2	0.0
p_3	-0.0
p_4	-0.0
p_5	-0.0
p_6	-0.0
p_7	-0.0
p_8	0.0
phi_c1	3.0
phi_c2	2.0
phi_c3	1.0
phi_c4	4.0
phi_c5	4.0
phi_c6	2.0
phi_c7	2.0
phi_c8	3.0
phi_dN	-0.0
pi_c1	20.0
pi_c2	20.0
pi_c3	0.0
pi_c4	-0.0
pi_c5	0.0
pi_c6	0.0
pi_c7	0.0
pi_c8	20.0
pi_dN	-0.0
tauD_c1	20.0
tauD_c2	52.0
tauD_c3	65.0
tauD_c4	10.0
tauD_c5	17.0
tauD_c6	40.0
tauD_c7	57.0
tauD_c8	20.0
tauD_d0	-0.0
tauD_dN	100.0
tauS_c1	80.0
tauS_c2	79.0
tauS_c3	82.0
tauS_c4	81.0
tauS_c5	81.0
tauS_c6	76.0
tauS_c7	79.0
tauS_c8	8.0
tauS_d0	-0.0
tauS_dN	31.0
x_c1_c2	1.0
x_c2_c3	1.0
x_c3_dN	1.0
x_c4_c1	1.0
x_c5_c7	1.0
x_c6_dN	1.0
x_c7_dN	1.0
x_c8_c6	1.0
x_d0_c4	1.0
x_d0_c5	1.0
x_d0_c8	1.0
